GRAPH IS : 
0 0 0 0 0 0 0 0 0 0 0 0 0 0 0 0 0 0 0 0 0 0 0 0 0 0 0 0 0 0 0 0 0 0 0 0 0 0 0 0 0 0 0 0 0 0 0 0 0 0 0 0 0 0 0 0 0 0 0 0 0 0 0 0 0 0 0 0 0 0 0 0 0 0 0 0 0 0 0 0 0 0 0 0 0 0 0 
0 0 0 0 1 0 0 0 0 0 0 0 0 0 1 0 0 0 0 0 1 0 0 0 0 0 0 0 0 0 0 0 0 0 0 0 0 0 0 0 0 0 0 0 0 0 0 0 0 0 0 0 0 0 0 0 0 0 0 0 0 0 0 0 0 0 1 0 0 0 0 0 0 0 0 0 0 0 0 1 0 0 0 1 0 0 0 
0 0 0 0 1 0 0 1 0 0 0 1 0 0 0 0 1 0 0 1 0 0 0 1 0 0 0 0 0 1 0 0 1 1 1 1 0 0 0 1 0 0 1 1 0 0 1 0 0 0 0 0 0 1 1 1 1 0 1 0 0 0 0 0 0 0 1 1 0 0 0 0 1 0 1 0 1 0 0 1 1 1 0 1 0 0 1 
0 0 0 0 0 0 0 0 0 0 0 0 0 0 0 0 0 0 0 0 0 0 1 1 0 0 0 0 0 0 0 0 0 1 0 0 0 0 0 0 0 0 0 0 0 0 0 0 0 0 0 0 0 0 0 0 0 0 1 0 0 0 0 0 0 0 0 0 0 0 0 0 1 0 0 0 0 0 0 0 0 0 0 1 0 0 0 
0 1 1 0 0 0 0 0 0 0 0 0 1 0 1 0 0 0 1 1 1 1 0 0 0 0 0 0 0 0 0 0 1 0 1 0 0 0 0 0 0 0 0 0 0 0 1 0 0 1 0 0 0 0 0 1 0 0 0 1 0 0 0 0 0 0 1 0 0 0 0 0 0 0 1 0 0 0 0 1 0 0 0 1 0 0 0 
0 0 0 0 0 0 0 0 0 0 0 0 0 0 0 0 0 0 0 0 0 0 0 0 0 0 0 0 0 0 0 1 0 0 1 0 0 0 0 0 0 0 0 0 0 0 0 0 0 0 0 0 0 0 0 0 0 0 0 0 0 0 0 0 0 0 0 0 0 0 0 0 0 0 0 0 0 0 1 0 0 0 0 1 0 0 0 
0 0 0 0 0 0 0 0 0 0 0 0 0 0 0 0 0 0 0 0 0 0 0 0 0 0 0 0 0 0 0 0 0 0 0 0 0 0 0 0 0 0 0 0 0 0 0 1 0 0 0 0 0 0 0 0 0 0 0 0 0 0 0 0 0 0 0 0 0 0 0 0 0 0 0 0 0 0 0 0 0 0 0 1 0 0 0 
0 0 1 0 0 0 0 0 0 0 0 0 0 0 0 0 0 0 0 1 0 0 0 0 0 0 0 0 0 0 0 0 0 1 1 1 0 0 0 0 0 0 0 0 0 0 0 0 0 0 0 0 0 0 0 0 0 0 1 0 0 0 0 0 0 0 0 0 0 0 0 0 0 0 0 0 0 0 0 0 0 0 0 1 0 0 0 
0 0 0 0 0 0 0 0 0 0 0 0 0 0 0 0 0 0 0 0 0 0 0 0 0 0 0 0 0 0 0 0 0 0 0 0 0 0 0 0 0 0 0 0 0 0 0 0 0 1 0 0 0 0 0 0 0 0 0 0 0 0 0 0 0 0 0 0 0 0 0 1 0 0 0 0 0 0 0 0 0 0 0 1 0 0 0 
0 0 0 0 0 0 0 0 0 0 0 1 0 0 1 0 0 0 0 0 0 0 0 0 0 0 0 0 0 0 0 0 0 0 0 0 0 0 0 0 1 0 0 0 0 0 0 0 0 0 0 0 0 0 0 0 0 1 0 0 0 0 0 0 0 0 0 0 0 0 0 0 0 0 0 0 1 0 0 0 0 0 0 1 0 0 0 
0 0 0 0 0 0 0 0 0 0 0 0 0 0 0 0 0 0 0 0 0 0 0 0 0 0 0 0 0 0 0 0 0 0 0 0 0 0 0 0 0 0 1 0 0 0 0 0 0 0 0 0 0 0 0 0 0 0 0 0 0 0 0 0 0 0 0 0 0 0 0 0 0 0 0 0 0 0 0 0 0 0 0 1 0 0 0 
0 0 1 0 0 0 0 0 0 1 0 0 0 0 1 0 0 0 0 0 0 0 0 0 0 0 0 0 0 0 0 0 0 0 0 0 0 0 0 0 1 0 0 0 0 0 0 0 0 0 0 0 0 0 0 0 0 0 0 0 0 0 0 0 0 0 0 1 0 0 0 0 0 0 0 0 1 0 0 0 0 0 0 1 0 0 0 
0 0 0 0 1 0 0 0 0 0 0 0 0 0 1 0 0 0 0 0 1 1 0 0 0 0 0 0 0 0 0 0 1 0 1 0 1 0 0 0 0 0 0 0 0 0 1 0 0 0 0 0 1 0 0 0 0 0 0 0 0 0 0 0 0 0 0 0 1 0 0 0 0 0 1 0 0 0 0 0 0 0 0 1 0 0 0 
0 0 0 0 0 0 0 0 0 0 0 0 0 0 0 0 0 0 0 1 0 0 0 0 0 0 0 1 0 0 0 0 0 0 0 0 0 0 0 0 0 0 0 1 0 0 0 0 0 0 0 0 0 0 0 0 0 0 0 0 1 0 0 0 0 0 0 0 0 0 0 0 0 0 0 0 0 0 0 0 0 0 0 0 0 1 0 
0 1 0 0 1 0 0 0 0 1 0 1 1 0 0 0 0 0 0 0 1 1 0 0 0 0 0 0 0 0 0 0 1 0 1 0 0 0 0 0 1 0 0 0 0 0 1 0 0 1 0 0 0 0 0 0 0 0 0 0 0 0 0 0 0 0 1 0 0 0 0 0 0 0 1 0 1 0 0 1 0 0 0 1 0 0 0 
0 0 0 0 0 0 0 0 0 0 0 0 0 0 0 0 0 0 0 0 0 0 0 0 0 0 0 0 0 0 0 0 0 0 0 0 0 0 0 0 0 0 0 0 0 0 0 0 0 1 0 0 0 0 0 0 0 0 0 0 0 1 0 0 0 0 0 0 0 0 0 0 0 0 0 0 0 0 0 0 0 0 0 1 0 0 0 
0 0 1 0 0 0 0 0 0 0 0 0 0 0 0 0 0 0 0 0 0 0 1 0 0 0 0 0 0 0 0 0 0 0 0 0 0 0 0 0 0 0 1 0 0 0 0 0 0 0 0 0 0 0 0 0 0 0 0 0 0 0 0 1 0 0 1 1 0 0 0 0 0 0 0 0 1 1 0 0 0 0 0 1 0 0 0 
0 0 0 0 0 0 0 0 0 0 0 0 0 0 0 0 0 0 0 1 0 0 0 0 0 0 0 0 0 0 0 0 0 0 0 0 0 1 0 0 0 0 0 0 0 1 0 0 0 0 1 0 0 0 0 0 0 0 1 0 0 0 0 0 0 0 0 0 0 0 0 0 0 1 0 0 0 0 0 0 0 0 0 1 1 0 0 
0 0 0 0 1 0 0 0 0 0 0 0 0 0 0 0 0 0 0 0 0 0 0 0 0 0 0 0 0 0 0 0 0 0 0 0 0 0 0 0 0 0 0 0 0 0 0 0 0 1 0 0 0 0 0 0 0 0 0 1 0 0 0 0 0 0 0 0 0 0 0 1 0 0 0 0 0 0 0 0 0 0 0 1 0 0 0 
0 0 1 0 1 0 0 1 0 0 0 0 0 1 0 0 0 1 0 0 0 0 0 1 0 0 0 1 0 0 0 0 1 0 1 1 0 1 0 0 0 0 1 1 0 1 1 0 0 1 1 1 1 1 0 1 0 0 1 0 1 0 0 0 0 0 1 0 1 1 0 1 1 1 1 0 0 0 0 0 0 1 0 1 1 1 0 
0 1 0 0 1 0 0 0 0 0 0 0 1 0 1 0 0 0 0 0 0 1 0 0 0 0 0 0 0 0 0 0 1 0 1 0 0 0 0 0 0 0 0 0 0 0 1 0 0 1 0 0 0 0 0 0 0 0 0 1 0 0 0 0 0 0 1 0 0 0 0 1 0 0 1 0 0 0 0 1 0 0 0 1 0 0 0 
0 0 0 0 1 0 0 0 0 0 0 0 1 0 1 0 0 0 0 0 1 0 0 0 0 0 0 0 0 0 0 0 1 0 1 0 0 0 0 0 0 0 0 0 0 0 1 0 0 0 0 0 0 0 0 0 0 0 0 0 0 0 0 0 0 0 1 0 0 0 0 0 0 0 1 0 0 0 0 1 0 0 0 1 0 0 0 
0 0 0 1 0 0 0 0 0 0 0 0 0 0 0 0 1 0 0 0 0 0 0 0 0 0 0 0 0 0 0 0 0 0 0 0 0 0 0 0 0 0 1 0 0 0 0 0 0 0 0 0 0 0 0 0 0 0 0 0 0 0 0 1 0 0 0 0 0 0 0 0 0 0 0 0 0 1 0 0 0 0 0 1 0 0 0 
0 0 1 1 0 0 0 0 0 0 0 0 0 0 0 0 0 0 0 1 0 0 0 0 0 0 0 0 0 1 0 0 0 1 0 1 0 0 0 0 0 0 0 1 0 0 0 0 0 0 0 0 0 0 0 0 0 0 0 0 0 0 0 0 0 0 0 1 0 0 0 0 1 0 0 0 0 0 0 0 0 0 0 1 0 0 0 
0 0 0 0 0 0 0 0 0 0 0 0 0 0 0 0 0 0 0 0 0 0 0 0 0 0 0 0 0 0 0 0 0 0 0 0 0 0 0 0 0 0 0 0 0 0 0 0 0 0 0 0 0 0 0 0 0 0 0 0 0 0 0 0 0 0 1 1 0 0 0 0 0 0 0 0 0 0 0 0 1 0 0 1 0 0 0 
0 0 0 0 0 0 0 0 0 0 0 0 0 0 0 0 0 0 0 0 0 0 0 0 0 0 0 0 0 0 0 0 0 0 0 0 0 0 0 0 0 0 0 0 0 0 0 0 0 0 0 0 0 0 0 0 0 0 0 0 0 0 0 0 0 0 0 0 0 0 0 0 0 0 0 0 0 0 0 0 0 0 0 1 0 0 0 
0 0 0 0 0 0 0 0 0 0 0 0 0 0 0 0 0 0 0 0 0 0 0 0 0 0 0 0 0 0 0 0 0 0 0 0 0 0 0 0 0 0 0 0 0 0 0 0 0 0 0 0 0 0 0 0 0 0 0 0 0 0 0 0 0 0 0 0 0 0 0 0 0 0 0 0 0 0 0 0 0 0 0 1 0 0 0 
0 0 0 0 0 0 0 0 0 0 0 0 0 1 0 0 0 0 0 1 0 0 0 0 0 0 0 0 0 0 0 0 0 0 0 0 0 0 0 0 0 0 0 1 0 0 0 0 0 0 0 0 0 0 0 0 0 0 0 0 1 0 0 0 0 0 0 0 0 0 0 0 0 0 0 0 0 0 0 0 0 0 0 0 0 1 0 
0 0 0 0 0 0 0 0 0 0 0 0 0 0 0 0 0 0 0 0 0 0 0 0 0 0 0 0 0 0 0 0 0 0 0 0 0 0 0 0 0 0 0 0 0 0 0 0 0 0 0 1 0 0 0 0 0 0 0 0 0 0 0 0 0 0 0 0 1 1 0 0 0 0 0 0 0 0 0 0 0 0 0 1 0 0 0 
0 0 1 0 0 0 0 0 0 0 0 0 0 0 0 0 0 0 0 0 0 0 0 1 0 0 0 0 0 0 0 0 0 1 0 1 0 0 0 0 0 0 0 0 0 0 0 0 0 0 0 0 0 0 0 0 0 0 0 0 0 0 0 0 0 0 0 1 0 0 0 0 1 0 0 0 0 0 0 0 0 0 0 1 0 0 0 
0 0 0 0 0 0 0 0 0 0 0 0 0 0 0 0 0 0 0 0 0 0 0 0 0 0 0 0 0 0 0 0 0 0 0 0 0 0 0 1 0 0 0 0 0 0 0 0 0 0 0 0 0 0 0 0 0 0 0 0 0 0 0 0 0 0 0 0 0 0 0 0 0 0 0 0 0 0 0 0 0 0 0 1 0 0 0 
0 0 0 0 0 1 0 0 0 0 0 0 0 0 0 0 0 0 0 0 0 0 0 0 0 0 0 0 0 0 0 0 0 0 1 0 0 0 0 0 0 0 0 0 1 0 0 0 0 0 0 0 0 0 0 0 0 0 0 0 0 0 0 0 0 0 0 1 0 0 0 0 0 0 0 0 1 0 0 0 0 0 0 1 0 0 0 
0 0 1 0 1 0 0 0 0 0 0 0 1 0 1 0 0 0 0 1 1 1 0 0 0 0 0 0 0 0 0 0 0 0 1 0 0 0 0 0 0 0 0 0 0 0 1 0 0 0 0 0 0 0 0 1 0 0 0 0 0 0 0 0 0 0 1 0 0 0 1 0 0 0 1 0 0 0 0 0 0 0 0 1 0 0 0 
0 0 1 1 0 0 0 1 0 0 0 0 0 0 0 0 0 0 0 0 0 0 0 1 0 0 0 0 0 1 0 0 0 0 0 0 0 0 0 0 0 0 0 0 0 0 0 0 0 0 0 0 0 0 0 0 0 0 1 0 0 0 0 0 0 0 0 1 0 0 0 0 1 0 0 0 0 0 0 0 0 0 0 1 0 0 0 
0 0 1 0 1 1 0 1 0 0 0 0 1 0 1 0 0 0 0 1 1 1 0 0 0 0 0 0 0 0 0 1 1 0 0 1 0 0 0 0 0 0 0 0 0 0 1 0 0 0 0 0 0 0 0 1 0 0 1 0 0 0 0 0 0 0 1 0 0 0 1 1 0 0 1 0 0 0 0 0 0 0 0 1 0 0 0 
0 0 1 0 0 0 0 1 0 0 0 0 0 0 0 0 0 0 0 1 0 0 0 1 0 0 0 0 0 1 0 0 0 0 1 0 0 0 0 0 0 0 0 0 0 0 0 0 0 0 0 0 0 0 1 0 1 0 1 0 0 0 0 0 0 0 1 1 0 0 0 0 1 0 0 0 1 0 0 0 0 0 0 1 0 0 1 
0 0 0 0 0 0 0 0 0 0 0 0 1 0 0 0 0 0 0 0 0 0 0 0 0 0 0 0 0 0 0 0 0 0 0 0 0 0 0 0 0 0 0 0 0 0 0 0 0 0 0 0 1 0 0 0 0 0 0 0 0 0 0 0 0 0 0 0 0 0 0 0 0 0 0 0 0 0 0 0 0 0 0 1 0 0 0 
0 0 0 0 0 0 0 0 0 0 0 0 0 0 0 0 0 1 0 1 0 0 0 0 0 0 0 0 0 0 0 0 0 0 0 0 0 0 0 0 0 0 0 0 0 1 0 0 0 0 1 0 0 0 0 0 0 0 1 0 0 0 0 0 0 0 0 0 0 0 0 0 0 1 0 0 0 0 0 0 0 0 0 1 1 0 0 
0 0 0 0 0 0 0 0 0 0 0 0 0 0 0 0 0 0 0 0 0 0 0 0 0 0 0 0 0 0 0 0 0 0 0 0 0 0 0 0 0 0 0 0 0 0 0 0 0 0 0 0 0 0 0 0 0 0 0 0 0 0 0 0 0 0 0 0 0 0 0 0 0 0 0 0 0 0 0 0 0 0 0 1 0 0 0 
0 0 1 0 0 0 0 0 0 0 0 0 0 0 0 0 0 0 0 0 0 0 0 0 0 0 0 0 0 0 1 0 0 0 0 0 0 0 0 0 0 0 0 0 0 0 0 0 0 0 0 0 0 0 0 0 0 0 0 0 0 0 0 0 0 0 1 0 0 0 0 0 0 0 0 0 0 0 0 0 0 0 0 1 0 0 0 
0 0 0 0 0 0 0 0 0 1 0 1 0 0 1 0 0 0 0 0 0 0 0 0 0 0 0 0 0 0 0 0 0 0 0 0 0 0 0 0 0 0 0 0 0 0 0 0 0 0 0 0 0 0 0 0 0 1 0 0 0 0 0 0 0 0 0 0 0 0 0 0 0 0 0 0 1 0 0 0 0 0 0 1 0 0 0 
0 0 0 0 0 0 0 0 0 0 0 0 0 0 0 0 0 0 0 0 0 0 0 0 0 0 0 0 0 0 0 0 0 0 0 0 0 0 0 0 0 0 0 0 0 0 0 0 0 0 0 0 0 0 0 0 0 0 0 0 0 0 0 0 0 0 0 0 0 0 0 0 0 0 0 0 0 0 0 0 0 0 0 1 0 0 0 
0 0 1 0 0 0 0 0 0 0 1 0 0 0 0 0 1 0 0 1 0 0 1 0 0 0 0 0 0 0 0 0 0 0 0 0 0 0 0 0 0 0 0 1 0 0 0 0 0 0 0 0 0 1 0 0 0 0 0 0 0 0 0 1 0 0 1 1 0 0 0 0 0 0 0 0 0 1 0 0 0 1 0 1 0 0 0 
0 0 1 0 0 0 0 0 0 0 0 0 0 1 0 0 0 0 0 1 0 0 0 1 0 0 0 1 0 0 0 0 0 0 0 0 0 0 0 0 0 0 1 0 0 0 0 0 0 0 0 0 0 1 0 0 0 0 0 0 1 0 0 0 0 0 1 0 0 0 0 0 1 0 0 0 0 0 0 0 0 1 0 1 0 1 0 
0 0 0 0 0 0 0 0 0 0 0 0 0 0 0 0 0 0 0 0 0 0 0 0 0 0 0 0 0 0 0 1 0 0 0 0 0 0 0 0 0 0 0 0 0 0 0 0 0 0 0 0 0 0 0 0 0 0 0 0 0 0 0 0 0 0 0 0 0 0 0 0 0 0 0 0 1 0 0 0 0 0 0 1 0 0 0 
0 0 0 0 0 0 0 0 0 0 0 0 0 0 0 0 0 1 0 1 0 0 0 0 0 0 0 0 0 0 0 0 0 0 0 0 0 1 0 0 0 0 0 0 0 0 0 0 0 0 1 0 0 0 0 0 0 0 1 0 0 0 0 0 0 0 0 0 0 0 0 0 0 1 0 0 0 0 0 0 0 0 0 1 1 0 0 
0 0 1 0 1 0 0 0 0 0 0 0 1 0 1 0 0 0 0 1 1 1 0 0 0 0 0 0 0 0 0 0 1 0 1 0 0 0 0 0 0 0 0 0 0 0 0 0 0 0 0 0 0 0 0 1 0 0 0 0 0 0 0 0 0 0 1 0 0 0 1 1 0 0 1 0 0 0 0 0 0 0 0 1 0 0 0 
0 0 0 0 0 0 1 0 0 0 0 0 0 0 0 0 0 0 0 0 0 0 0 0 0 0 0 0 0 0 0 0 0 0 0 0 0 0 0 0 0 0 0 0 0 0 0 0 0 0 0 0 0 0 0 0 0 0 0 0 0 0 0 0 0 0 0 0 0 0 0 0 0 0 0 0 0 0 0 0 0 0 0 1 0 0 0 
0 0 0 0 0 0 0 0 0 0 0 0 0 0 0 0 0 0 0 0 0 0 0 0 0 0 0 0 0 0 0 0 0 0 0 0 0 0 0 0 0 0 0 0 0 0 0 0 0 0 0 0 0 0 0 0 0 0 0 0 0 0 0 0 0 0 0 0 0 0 0 0 0 0 0 0 0 0 0 0 0 0 0 1 0 0 0 
0 0 0 0 1 0 0 0 1 0 0 0 0 0 1 1 0 0 1 1 1 0 0 0 0 0 0 0 0 0 0 0 0 0 0 0 0 0 0 0 0 0 0 0 0 0 0 0 0 0 0 0 1 0 0 0 0 0 0 1 0 1 0 0 0 0 1 0 1 1 0 1 0 0 0 0 0 0 0 1 0 0 0 1 0 0 0 
0 0 0 0 0 0 0 0 0 0 0 0 0 0 0 0 0 1 0 1 0 0 0 0 0 0 0 0 0 0 0 0 0 0 0 0 0 1 0 0 0 0 0 0 0 1 0 0 0 0 0 0 0 0 0 0 0 0 1 0 0 0 0 0 0 0 0 0 0 0 0 0 0 1 0 0 0 0 0 0 0 0 0 1 1 0 0 
0 0 0 0 0 0 0 0 0 0 0 0 0 0 0 0 0 0 0 1 0 0 0 0 0 0 0 0 1 0 0 0 0 0 0 0 0 0 0 0 0 0 0 0 0 0 0 0 0 0 0 0 0 0 0 0 0 0 0 0 1 0 0 0 0 0 0 0 1 1 0 0 0 0 0 0 0 0 0 0 0 0 0 1 0 1 0 
0 0 0 0 0 0 0 0 0 0 0 0 1 0 0 0 0 0 0 1 0 0 0 0 0 0 0 0 0 0 0 0 0 0 0 0 1 0 0 0 0 0 0 0 0 0 0 0 0 1 0 0 0 0 0 0 0 0 0 0 0 0 0 0 0 0 0 0 1 1 0 0 0 0 0 0 0 0 0 0 0 0 0 1 0 0 0 
0 0 1 0 0 0 0 0 0 0 0 0 0 0 0 0 0 0 0 1 0 0 0 0 0 0 0 0 0 0 0 0 0 0 0 0 0 0 0 0 0 0 1 1 0 0 0 0 0 0 0 0 0 0 0 0 0 0 0 0 0 0 0 0 0 0 1 0 0 0 0 0 0 0 0 0 0 0 0 0 0 1 0 1 0 0 0 
0 0 1 0 0 0 0 0 0 0 0 0 0 0 0 0 0 0 0 0 0 0 0 0 0 0 0 0 0 0 0 0 0 0 0 1 0 0 0 0 0 0 0 0 0 0 0 0 0 0 0 0 0 0 0 0 0 0 0 0 0 0 0 0 0 0 0 1 0 0 0 0 0 0 0 0 1 0 0 0 0 0 0 1 0 0 0 
0 0 1 0 1 0 0 0 0 0 0 0 0 0 0 0 0 0 0 1 0 0 0 0 0 0 0 0 0 0 0 0 1 0 1 0 0 0 0 0 0 0 0 0 0 0 1 0 0 0 0 0 0 0 0 0 0 0 0 0 0 0 0 0 0 0 1 0 0 0 1 0 0 0 1 0 0 0 0 0 0 0 0 1 0 0 0 
0 0 1 0 0 0 0 0 0 0 0 0 0 0 0 0 0 0 0 0 0 0 0 0 0 0 0 0 0 0 0 0 0 0 0 1 0 0 0 0 0 0 0 0 0 0 0 0 0 0 0 0 0 0 0 0 0 0 0 0 0 0 0 0 0 0 0 0 0 0 0 0 0 0 0 0 0 0 0 0 0 0 0 1 0 0 0 
0 0 0 0 0 0 0 0 0 1 0 0 0 0 0 0 0 0 0 0 0 0 0 0 0 0 0 0 0 0 0 0 0 0 0 0 0 0 0 0 1 0 0 0 0 0 0 0 0 0 0 0 0 0 0 0 0 0 0 0 0 0 0 0 0 0 0 0 0 0 0 0 0 0 0 0 0 0 0 0 0 0 0 1 0 0 0 
0 0 1 1 0 0 0 1 0 0 0 0 0 0 0 0 0 1 0 1 0 0 0 0 0 0 0 0 0 0 0 0 0 1 1 1 0 1 0 0 0 0 0 0 0 1 0 0 0 0 1 0 0 0 0 0 0 0 0 0 0 0 0 0 0 0 0 0 0 1 0 1 1 1 0 0 0 0 0 0 0 0 0 1 1 0 0 
0 0 0 0 1 0 0 0 0 0 0 0 0 0 0 0 0 0 1 0 1 0 0 0 0 0 0 0 0 0 0 0 0 0 0 0 0 0 0 0 0 0 0 0 0 0 0 0 0 1 0 0 0 0 0 0 0 0 0 0 0 0 0 0 0 0 0 0 0 0 0 1 0 0 0 0 0 0 0 0 0 0 0 1 0 0 0 
0 0 0 0 0 0 0 0 0 0 0 0 0 1 0 0 0 0 0 1 0 0 0 0 0 0 0 1 0 0 0 0 0 0 0 0 0 0 0 0 0 0 0 1 0 0 0 0 0 0 0 1 0 0 0 0 0 0 0 0 0 0 0 0 0 0 0 0 0 0 0 0 0 0 0 0 0 0 0 0 0 0 0 0 0 1 0 
0 0 0 0 0 0 0 0 0 0 0 0 0 0 0 1 0 0 0 0 0 0 0 0 0 0 0 0 0 0 0 0 0 0 0 0 0 0 0 0 0 0 0 0 0 0 0 0 0 1 0 0 0 0 0 0 0 0 0 0 0 0 0 0 0 0 0 0 0 0 0 0 0 0 0 0 0 0 0 0 0 0 0 1 0 0 0 
0 0 0 0 0 0 0 0 0 0 0 0 0 0 0 0 0 0 0 0 0 0 0 0 0 0 0 0 0 0 0 0 0 0 0 0 0 0 0 0 0 0 0 0 0 0 0 0 0 0 0 0 0 0 0 0 0 0 0 0 0 0 0 0 0 0 0 0 0 0 0 0 0 0 0 0 0 0 0 0 0 0 0 1 0 0 0 
0 0 0 0 0 0 0 0 0 0 0 0 0 0 0 0 1 0 0 0 0 0 1 0 0 0 0 0 0 0 0 0 0 0 0 0 0 0 0 0 0 0 1 0 0 0 0 0 0 0 0 0 0 0 0 0 0 0 0 0 0 0 0 0 0 0 0 0 0 0 0 0 0 0 0 0 0 1 0 0 0 0 0 1 0 0 0 
0 0 0 0 0 0 0 0 0 0 0 0 0 0 0 0 0 0 0 0 0 0 0 0 0 0 0 0 0 0 0 0 0 0 0 0 0 0 0 0 0 0 0 0 0 0 0 0 0 0 0 0 0 0 0 0 0 0 0 0 0 0 0 0 0 0 0 0 0 0 0 0 0 0 0 0 0 0 0 0 0 0 0 1 0 0 0 
0 0 0 0 0 0 0 0 0 0 0 0 0 0 0 0 0 0 0 0 0 0 0 0 0 0 0 0 0 0 0 0 0 0 0 0 0 0 0 0 0 0 0 0 0 0 0 0 0 0 0 0 0 0 0 0 0 0 0 0 0 0 0 0 0 0 0 0 0 0 0 0 0 0 0 0 0 0 0 0 0 0 0 1 0 0 0 
0 1 1 0 1 0 0 0 0 0 0 0 0 0 1 0 1 0 0 1 1 1 0 0 1 0 0 0 0 0 0 0 1 0 1 1 0 0 0 1 0 0 1 1 0 0 1 0 0 1 0 0 0 1 0 1 0 0 0 0 0 0 0 0 0 0 0 1 0 0 0 0 0 0 1 0 1 0 0 1 1 1 0 1 0 0 1 
0 0 1 0 0 0 0 0 0 0 0 1 0 0 0 0 1 0 0 0 0 0 0 1 1 0 0 0 0 1 0 1 0 1 0 1 0 0 0 0 0 0 1 0 0 0 0 0 0 0 0 0 0 0 1 0 0 0 0 0 0 0 0 0 0 0 1 0 0 0 0 0 1 0 0 0 1 0 0 0 1 0 0 1 0 0 0 
0 0 0 0 0 0 0 0 0 0 0 0 1 0 0 0 0 0 0 1 0 0 0 0 0 0 0 0 1 0 0 0 0 0 0 0 0 0 0 0 0 0 0 0 0 0 0 0 0 1 0 1 1 0 0 0 0 0 0 0 0 0 0 0 0 0 0 0 0 1 0 0 0 0 0 0 0 0 0 0 0 0 0 1 0 0 0 
0 0 0 0 0 0 0 0 0 0 0 0 0 0 0 0 0 0 0 1 0 0 0 0 0 0 0 0 1 0 0 0 0 0 0 0 0 0 0 0 0 0 0 0 0 0 0 0 0 1 0 1 1 0 0 0 0 0 1 0 0 0 0 0 0 0 0 0 1 0 0 1 0 0 0 0 0 0 0 0 0 0 0 1 0 0 0 
0 0 0 0 0 0 0 0 0 0 0 0 0 0 0 0 0 0 0 0 0 0 0 0 0 0 0 0 0 0 0 0 1 0 1 0 0 0 0 0 0 0 0 0 0 0 1 0 0 0 0 0 0 0 0 1 0 0 0 0 0 0 0 0 0 0 0 0 0 0 0 0 0 0 1 0 0 0 0 0 0 0 0 1 0 0 0 
0 0 0 0 0 0 0 0 1 0 0 0 0 0 0 0 0 0 1 1 1 0 0 0 0 0 0 0 0 0 0 0 0 0 1 0 0 0 0 0 0 0 0 0 0 0 1 0 0 1 0 0 0 0 0 0 0 0 1 1 0 0 0 0 0 0 0 0 0 1 0 0 0 0 0 0 0 0 0 0 0 0 0 1 0 0 0 
0 0 1 1 0 0 0 0 0 0 0 0 0 0 0 0 0 0 0 1 0 0 0 1 0 0 0 0 0 1 0 0 0 1 0 1 0 0 0 0 0 0 0 1 0 0 0 0 0 0 0 0 0 0 0 0 0 0 1 0 0 0 0 0 0 0 0 1 0 0 0 0 0 0 0 0 0 0 0 0 0 0 0 1 0 0 0 
0 0 0 0 0 0 0 0 0 0 0 0 0 0 0 0 0 1 0 1 0 0 0 0 0 0 0 0 0 0 0 0 0 0 0 0 0 1 0 0 0 0 0 0 0 1 0 0 0 0 1 0 0 0 0 0 0 0 1 0 0 0 0 0 0 0 0 0 0 0 0 0 0 0 0 0 0 0 0 0 0 0 0 1 1 0 0 
0 0 1 0 1 0 0 0 0 0 0 0 1 0 1 0 0 0 0 1 1 1 0 0 0 0 0 0 0 0 0 0 1 0 1 0 0 0 0 0 0 0 0 0 0 0 1 0 0 0 0 0 0 0 0 1 0 0 0 0 0 0 0 0 0 0 1 0 0 0 1 0 0 0 0 0 0 0 0 0 0 0 0 1 0 0 0 
0 0 0 0 0 0 0 0 0 0 0 0 0 0 0 0 0 0 0 0 0 0 0 0 0 0 0 0 0 0 0 0 0 0 0 0 0 0 0 0 0 0 0 0 0 0 0 0 0 0 0 0 0 0 0 0 0 0 0 0 0 0 0 0 0 0 0 0 0 0 0 0 0 0 0 0 0 0 0 0 0 0 0 1 0 0 0 
0 0 1 0 0 0 0 0 0 1 0 1 0 0 1 0 1 0 0 0 0 0 0 0 0 0 0 0 0 0 0 1 0 0 0 1 0 0 0 0 1 0 0 0 1 0 0 0 0 0 0 0 0 0 1 0 0 0 0 0 0 0 0 0 0 0 1 1 0 0 0 0 0 0 0 0 0 0 0 0 1 0 0 1 0 0 0 
0 0 0 0 0 0 0 0 0 0 0 0 0 0 0 0 1 0 0 0 0 0 1 0 0 0 0 0 0 0 0 0 0 0 0 0 0 0 0 0 0 0 1 0 0 0 0 0 0 0 0 0 0 0 0 0 0 0 0 0 0 0 0 1 0 0 0 0 0 0 0 0 0 0 0 0 0 0 0 0 0 0 0 1 0 0 0 
0 0 0 0 0 1 0 0 0 0 0 0 0 0 0 0 0 0 0 0 0 0 0 0 0 0 0 0 0 0 0 0 0 0 0 0 0 0 0 0 0 0 0 0 0 0 0 0 0 0 0 0 0 0 0 0 0 0 0 0 0 0 0 0 0 0 0 0 0 0 0 0 0 0 0 0 0 0 0 0 0 0 0 1 0 0 0 
0 1 1 0 1 0 0 0 0 0 0 0 0 0 1 0 0 0 0 0 1 1 0 0 0 0 0 0 0 0 0 0 0 0 0 0 0 0 0 0 0 0 0 0 0 0 0 0 0 1 0 0 0 0 0 0 0 0 0 0 0 0 0 0 0 0 1 0 0 0 0 0 0 0 0 0 0 0 0 0 0 0 0 1 0 0 0 
0 0 1 0 0 0 0 0 0 0 0 0 0 0 0 0 0 0 0 0 0 0 0 0 1 0 0 0 0 0 0 0 0 0 0 0 0 0 0 0 0 0 0 0 0 0 0 0 0 0 0 0 0 0 0 0 0 0 0 0 0 0 0 0 0 0 1 1 0 0 0 0 0 0 0 0 1 0 0 0 0 0 0 1 0 0 0 
0 0 1 0 0 0 0 0 0 0 0 0 0 0 0 0 0 0 0 1 0 0 0 0 0 0 0 0 0 0 0 0 0 0 0 0 0 0 0 0 0 0 1 1 0 0 0 0 0 0 0 0 0 1 0 0 0 0 0 0 0 0 0 0 0 0 1 0 0 0 0 0 0 0 0 0 0 0 0 0 0 0 0 1 0 0 0 
0 0 0 0 0 0 0 0 0 0 0 0 0 0 0 0 0 0 0 0 0 0 0 0 0 0 0 0 0 0 0 0 0 0 0 0 0 0 0 0 0 0 0 0 0 0 0 0 0 0 0 0 0 0 0 0 0 0 0 0 0 0 0 0 0 0 0 0 0 0 0 0 0 0 0 0 0 0 0 0 0 0 0 1 0 0 0 
0 1 1 1 1 1 1 1 1 1 1 1 1 0 1 1 1 1 1 1 1 1 1 1 1 1 1 0 1 1 1 1 1 1 1 1 1 1 1 1 1 1 1 1 1 1 1 1 1 1 1 1 1 1 1 1 1 1 1 1 0 1 1 1 1 1 1 1 1 1 1 1 1 1 1 1 1 1 1 1 1 1 1 0 1 0 1 
0 0 0 0 0 0 0 0 0 0 0 0 0 0 0 0 0 1 0 1 0 0 0 0 0 0 0 0 0 0 0 0 0 0 0 0 0 1 0 0 0 0 0 0 0 1 0 0 0 0 1 0 0 0 0 0 0 0 1 0 0 0 0 0 0 0 0 0 0 0 0 0 0 1 0 0 0 0 0 0 0 0 0 1 0 0 0 
0 0 0 0 0 0 0 0 0 0 0 0 0 1 0 0 0 0 0 1 0 0 0 0 0 0 0 1 0 0 0 0 0 0 0 0 0 0 0 0 0 0 0 1 0 0 0 0 0 0 0 1 0 0 0 0 0 0 0 0 1 0 0 0 0 0 0 0 0 0 0 0 0 0 0 0 0 0 0 0 0 0 0 0 0 0 0 
0 0 1 0 0 0 0 0 0 0 0 0 0 0 0 0 0 0 0 0 0 0 0 0 0 0 0 0 0 0 0 0 0 0 0 1 0 0 0 0 0 0 0 0 0 0 0 0 0 0 0 0 0 0 0 0 0 0 0 0 0 0 0 0 0 0 1 0 0 0 0 0 0 0 0 0 0 0 0 0 0 0 0 1 0 0 0 




----------------------------

EPOCH: 0 MAX:  -41.379310345    AVG:  -45.985632184
EPOCH: 1 MAX:  -41.379310345    AVG:  -44.048850575
EPOCH: 2 MAX:  -40.804597701    AVG:  -43.290229885
EPOCH: 3 MAX:  -40.804597701    AVG:  -42.807471264
EPOCH: 4 MAX:  -39.080459770    AVG:  -42.284482759
EPOCH: 5 MAX:  -39.080459770    AVG:  -41.790229885
EPOCH: 6 MAX:  -37.931034483    AVG:  -41.281609195
EPOCH: 7 MAX:  -37.931034483    AVG:  -40.844827586
EPOCH: 8 MAX:  -37.931034483    AVG:  -40.382183908
EPOCH: 9 MAX:  -37.931034483    AVG:  -40.008620690
EPOCH: 10 MAX:  -37.356321839    AVG:  -39.563218391
EPOCH: 11 MAX:  -35.632183908    AVG:  -39.060344828
EPOCH: 12 MAX:  -35.632183908    AVG:  -38.600574713
EPOCH: 13 MAX:  -35.632183908    AVG:  -38.146551724
EPOCH: 14 MAX:  -35.632183908    AVG:  -37.764367816
EPOCH: 15 MAX:  -34.482758621    AVG:  -37.290229885
EPOCH: 16 MAX:  -34.482758621    AVG:  -36.683908046
EPOCH: 17 MAX:  -34.482758621    AVG:  -36.037356322
EPOCH: 18 MAX:  -34.482758621    AVG:  -35.522988506
EPOCH: 19 MAX:  -33.908045977    AVG:  -35.198275862
EPOCH: 20 MAX:  -33.908045977    AVG:  -34.798850575
EPOCH: 21 MAX:  -33.908045977    AVG:  -34.439655172
EPOCH: 22 MAX:  -33.908045977    AVG:  -34.350574713
EPOCH: 23 MAX:  -33.333333333    AVG:  -34.155172414
EPOCH: 24 MAX:  -32.758620690    AVG:  -33.890804598
EPOCH: 25 MAX:  -32.758620690    AVG:  -33.816091954
EPOCH: 26 MAX:  -32.183908046    AVG:  -33.658045977
EPOCH: 27 MAX:  -32.183908046    AVG:  -33.304597701
EPOCH: 28 MAX:  -32.183908046    AVG:  -32.936781609
EPOCH: 29 MAX:  -32.183908046    AVG:  -32.600574713
EPOCH: 30 MAX:  -32.183908046    AVG:  -32.353448276
EPOCH: 31 MAX:  -32.183908046    AVG:  -32.183908046
EPOCH: 32 MAX:  -32.183908046    AVG:  -32.183908046
EPOCH: 33 MAX:  -32.183908046    AVG:  -32.183908046
EPOCH: 34 MAX:  -32.183908046    AVG:  -32.183908046
EPOCH: 35 MAX:  -32.183908046    AVG:  -32.183908046
EPOCH: 36 MAX:  -32.183908046    AVG:  -32.183908046
EPOCH: 37 MAX:  -32.183908046    AVG:  -32.183908046
EPOCH: 38 MAX:  -32.183908046    AVG:  -32.183908046
EPOCH: 39 MAX:  -32.183908046    AVG:  -32.183908046
EPOCH: 40 MAX:  -32.183908046    AVG:  -32.183908046
EPOCH: 41 MAX:  -32.183908046    AVG:  -32.183908046
EPOCH: 42 MAX:  -31.609195402    AVG:  -32.181034483
EPOCH: 43 MAX:  -31.609195402    AVG:  -32.181034483
EPOCH: 44 MAX:  -31.609195402    AVG:  -32.181034483
EPOCH: 45 MAX:  -31.609195402    AVG:  -32.178160920
EPOCH: 46 MAX:  -31.609195402    AVG:  -32.169540230
EPOCH: 47 MAX:  -31.609195402    AVG:  -32.112068966
EPOCH: 48 MAX:  -31.609195402    AVG:  -31.954022989
EPOCH: 49 MAX:  -31.609195402    AVG:  -31.704022989
EPOCH: 50 MAX:  -31.609195402    AVG:  -31.609195402
EPOCH: 51 MAX:  -31.609195402    AVG:  -31.609195402
EPOCH: 52 MAX:  -31.609195402    AVG:  -31.609195402
EPOCH: 53 MAX:  -31.609195402    AVG:  -31.609195402
EPOCH: 54 MAX:  -31.609195402    AVG:  -31.609195402
EPOCH: 55 MAX:  -31.609195402    AVG:  -31.609195402
EPOCH: 56 MAX:  -31.609195402    AVG:  -31.609195402
EPOCH: 57 MAX:  -31.609195402    AVG:  -31.609195402
EPOCH: 58 MAX:  -31.609195402    AVG:  -31.609195402
EPOCH: 59 MAX:  -31.609195402    AVG:  -31.609195402
EPOCH: 60 MAX:  -31.609195402    AVG:  -31.609195402
EPOCH: 61 MAX:  -31.609195402    AVG:  -31.609195402
EPOCH: 62 MAX:  -31.609195402    AVG:  -31.609195402
EPOCH: 63 MAX:  -31.609195402    AVG:  -31.609195402
EPOCH: 64 MAX:  -31.609195402    AVG:  -31.609195402
EPOCH: 65 MAX:  -31.609195402    AVG:  -31.609195402
EPOCH: 66 MAX:  -31.609195402    AVG:  -31.609195402
EPOCH: 67 MAX:  -31.609195402    AVG:  -31.609195402
EPOCH: 68 MAX:  -31.609195402    AVG:  -31.609195402
EPOCH: 69 MAX:  -31.609195402    AVG:  -31.609195402
EPOCH: 70 MAX:  -31.609195402    AVG:  -31.609195402
EPOCH: 71 MAX:  -31.609195402    AVG:  -31.609195402
EPOCH: 72 MAX:  -31.609195402    AVG:  -31.609195402
EPOCH: 73 MAX:  -31.609195402    AVG:  -31.609195402
EPOCH: 74 MAX:  -31.609195402    AVG:  -31.609195402
EPOCH: 75 MAX:  -31.609195402    AVG:  -31.609195402
EPOCH: 76 MAX:  -31.609195402    AVG:  -31.609195402
EPOCH: 77 MAX:  -31.609195402    AVG:  -31.609195402
EPOCH: 78 MAX:  -31.609195402    AVG:  -31.609195402
EPOCH: 79 MAX:  -31.609195402    AVG:  -31.609195402
EPOCH: 80 MAX:  -31.609195402    AVG:  -31.609195402
EPOCH: 81 MAX:  -31.609195402    AVG:  -31.609195402
EPOCH: 82 MAX:  -31.609195402    AVG:  -31.609195402
EPOCH: 83 MAX:  -31.609195402    AVG:  -31.609195402
EPOCH: 84 MAX:  -31.609195402    AVG:  -31.609195402
EPOCH: 85 MAX:  -31.609195402    AVG:  -31.609195402
EPOCH: 86 MAX:  -31.609195402    AVG:  -31.609195402
EPOCH: 87 MAX:  -31.609195402    AVG:  -31.609195402
EPOCH: 88 MAX:  -31.609195402    AVG:  -31.609195402
EPOCH: 89 MAX:  -31.609195402    AVG:  -31.609195402
EPOCH: 90 MAX:  -31.609195402    AVG:  -31.609195402
EPOCH: 91 MAX:  -31.609195402    AVG:  -31.609195402
EPOCH: 92 MAX:  -31.609195402    AVG:  -31.609195402
EPOCH: 93 MAX:  -31.609195402    AVG:  -31.609195402
EPOCH: 94 MAX:  -31.609195402    AVG:  -31.609195402
EPOCH: 95 MAX:  -31.609195402    AVG:  -31.609195402
EPOCH: 96 MAX:  -31.609195402    AVG:  -31.609195402
EPOCH: 97 MAX:  -31.609195402    AVG:  -31.609195402
EPOCH: 98 MAX:  -31.609195402    AVG:  -31.609195402
EPOCH: 99 MAX:  -31.609195402    AVG:  -31.609195402
EPOCH: 100 MAX:  -31.609195402    AVG:  -31.609195402
EPOCH: 101 MAX:  -31.609195402    AVG:  -31.609195402
EPOCH: 102 MAX:  -31.609195402    AVG:  -31.609195402
EPOCH: 103 MAX:  -31.609195402    AVG:  -31.609195402
EPOCH: 104 MAX:  -31.609195402    AVG:  -31.609195402
EPOCH: 105 MAX:  -31.609195402    AVG:  -31.609195402
EPOCH: 106 MAX:  -31.609195402    AVG:  -31.609195402
EPOCH: 107 MAX:  -31.609195402    AVG:  -31.609195402
EPOCH: 108 MAX:  -31.609195402    AVG:  -31.609195402
HELPER:  ....
EPOCH: 109 MAX:  -5.747126437    AVG:  -31.479885057
EPOCH: 110 MAX:  -5.747126437    AVG:  -31.198275862
EPOCH: 111 MAX:  -5.747126437    AVG:  -30.701149425
EPOCH: 112 MAX:  -5.747126437    AVG:  -29.393678161
EPOCH: 113 MAX:  -5.747126437    AVG:  -26.293103448
EPOCH: 114 MAX:  -5.747126437    AVG:  -21.931034483
EPOCH: 115 MAX:  -5.747126437    AVG:  -16.195402299
EPOCH: 116 MAX:  -5.747126437    AVG:  -12.560344828
EPOCH: 117 MAX:  -5.747126437    AVG:  -9.637931034
EPOCH: 118 MAX:  -5.747126437    AVG:  -7.531609195
EPOCH: 119 MAX:  -5.747126437    AVG:  -6.143678161
EPOCH: 120 MAX:  -5.747126437    AVG:  -5.747126437
EPOCH: 121 MAX:  -5.747126437    AVG:  -5.747126437
EPOCH: 122 MAX:  -5.747126437    AVG:  -5.747126437
EPOCH: 123 MAX:  -5.747126437    AVG:  -5.747126437
EPOCH: 124 MAX:  -5.747126437    AVG:  -5.747126437
EPOCH: 125 MAX:  -5.747126437    AVG:  -5.747126437
EPOCH: 126 MAX:  -5.747126437    AVG:  -5.747126437
EPOCH: 127 MAX:  -5.747126437    AVG:  -5.747126437
EPOCH: 128 MAX:  -5.747126437    AVG:  -5.747126437
EPOCH: 129 MAX:  -5.747126437    AVG:  -5.747126437
EPOCH: 130 MAX:  -5.747126437    AVG:  -5.747126437
EPOCH: 131 MAX:  -5.747126437    AVG:  -5.747126437
EPOCH: 132 MAX:  -5.747126437    AVG:  -5.747126437
EPOCH: 133 MAX:  -5.747126437    AVG:  -5.747126437
EPOCH: 134 MAX:  -5.747126437    AVG:  -5.747126437
EPOCH: 135 MAX:  -5.747126437    AVG:  -5.747126437
EPOCH: 136 MAX:  -5.747126437    AVG:  -5.747126437
EPOCH: 137 MAX:  -5.747126437    AVG:  -5.747126437
EPOCH: 138 MAX:  -5.747126437    AVG:  -5.747126437
EPOCH: 139 MAX:  -5.747126437    AVG:  -5.747126437
EPOCH: 140 MAX:  -5.747126437    AVG:  -5.747126437
EPOCH: 141 MAX:  -5.747126437    AVG:  -5.747126437
EPOCH: 142 MAX:  -5.747126437    AVG:  -5.747126437
EPOCH: 143 MAX:  -5.747126437    AVG:  -5.747126437
EPOCH: 144 MAX:  -5.747126437    AVG:  -5.747126437
EPOCH: 145 MAX:  -5.747126437    AVG:  -5.747126437
EPOCH: 146 MAX:  -5.747126437    AVG:  -5.747126437
EPOCH: 147 MAX:  -5.747126437    AVG:  -5.747126437
EPOCH: 148 MAX:  -5.747126437    AVG:  -5.747126437
EPOCH: 149 MAX:  -5.747126437    AVG:  -5.747126437
EPOCH: 150 MAX:  -5.747126437    AVG:  -5.747126437
EPOCH: 151 MAX:  -5.747126437    AVG:  -5.747126437
EPOCH: 152 MAX:  -5.747126437    AVG:  -5.747126437
EPOCH: 153 MAX:  -5.747126437    AVG:  -5.747126437
EPOCH: 154 MAX:  -5.747126437    AVG:  -5.747126437
EPOCH: 155 MAX:  -5.747126437    AVG:  -5.747126437
EPOCH: 156 MAX:  -5.747126437    AVG:  -5.747126437
EPOCH: 157 MAX:  -5.747126437    AVG:  -5.747126437
EPOCH: 158 MAX:  -5.747126437    AVG:  -5.747126437
EPOCH: 159 MAX:  -5.747126437    AVG:  -5.747126437
EPOCH: 160 MAX:  -5.747126437    AVG:  -5.747126437
EPOCH: 161 MAX:  -5.747126437    AVG:  -5.747126437
EPOCH: 162 MAX:  -5.747126437    AVG:  -5.747126437
EPOCH: 163 MAX:  -5.747126437    AVG:  -5.747126437
EPOCH: 164 MAX:  -5.747126437    AVG:  -5.747126437
EPOCH: 165 MAX:  -5.747126437    AVG:  -5.747126437
EPOCH: 166 MAX:  -5.747126437    AVG:  -5.747126437
EPOCH: 167 MAX:  -5.747126437    AVG:  -5.747126437
EPOCH: 168 MAX:  -5.747126437    AVG:  -5.747126437
EPOCH: 169 MAX:  -5.747126437    AVG:  -5.747126437
EPOCH: 170 MAX:  -5.747126437    AVG:  -5.747126437
EPOCH: 171 MAX:  -5.747126437    AVG:  -5.747126437
EPOCH: 172 MAX:  -5.747126437    AVG:  -5.747126437
EPOCH: 173 MAX:  -5.747126437    AVG:  -5.747126437
EPOCH: 174 MAX:  -5.747126437    AVG:  -5.747126437
EPOCH: 175 MAX:  -5.747126437    AVG:  -5.747126437
EPOCH: 176 MAX:  -5.747126437    AVG:  -5.747126437
EPOCH: 177 MAX:  -5.747126437    AVG:  -5.747126437
EPOCH: 178 MAX:  -5.747126437    AVG:  -5.747126437
EPOCH: 179 MAX:  -5.747126437    AVG:  -5.747126437
EPOCH: 180 MAX:  -5.747126437    AVG:  -5.747126437
EPOCH: 181 MAX:  -5.747126437    AVG:  -5.747126437
EPOCH: 182 MAX:  -5.747126437    AVG:  -5.747126437
EPOCH: 183 MAX:  -5.747126437    AVG:  -5.747126437
EPOCH: 184 MAX:  -5.747126437    AVG:  -5.747126437
EPOCH: 185 MAX:  -5.747126437    AVG:  -5.747126437
EPOCH: 186 MAX:  -5.747126437    AVG:  -5.747126437
EPOCH: 187 MAX:  -5.747126437    AVG:  -5.747126437
EPOCH: 188 MAX:  -5.747126437    AVG:  -5.747126437
EPOCH: 189 MAX:  -5.747126437    AVG:  -5.747126437
EPOCH: 190 MAX:  -5.747126437    AVG:  -5.747126437
HELPER:  ....
EPOCH: 191 MAX:  -5.747126437    AVG:  -5.747126437
EPOCH: 192 MAX:  -5.747126437    AVG:  -5.747126437
EPOCH: 193 MAX:  -5.747126437    AVG:  -5.747126437
EPOCH: 194 MAX:  -5.747126437    AVG:  -5.747126437
EPOCH: 195 MAX:  -5.747126437    AVG:  -5.747126437
EPOCH: 196 MAX:  -5.747126437    AVG:  -5.747126437
EPOCH: 197 MAX:  -5.747126437    AVG:  -5.747126437
EPOCH: 198 MAX:  -5.747126437    AVG:  -5.747126437
EPOCH: 199 MAX:  -5.747126437    AVG:  -5.747126437
EPOCH: 200 MAX:  -5.747126437    AVG:  -5.747126437
EPOCH: 201 MAX:  -5.747126437    AVG:  -5.747126437
EPOCH: 202 MAX:  -5.747126437    AVG:  -5.747126437
EPOCH: 203 MAX:  -5.747126437    AVG:  -5.747126437
EPOCH: 204 MAX:  -5.747126437    AVG:  -5.747126437
EPOCH: 205 MAX:  -5.747126437    AVG:  -5.747126437
EPOCH: 206 MAX:  -5.747126437    AVG:  -5.747126437
EPOCH: 207 MAX:  -5.747126437    AVG:  -5.747126437
EPOCH: 208 MAX:  -5.747126437    AVG:  -5.747126437
EPOCH: 209 MAX:  -5.747126437    AVG:  -5.747126437
EPOCH: 210 MAX:  -5.747126437    AVG:  -5.747126437
EPOCH: 211 MAX:  -5.747126437    AVG:  -5.747126437
EPOCH: 212 MAX:  -5.747126437    AVG:  -5.747126437
EPOCH: 213 MAX:  -5.747126437    AVG:  -5.747126437
EPOCH: 214 MAX:  -5.747126437    AVG:  -5.747126437
EPOCH: 215 MAX:  -5.747126437    AVG:  -5.747126437
EPOCH: 216 MAX:  -5.747126437    AVG:  -5.747126437
EPOCH: 217 MAX:  -5.747126437    AVG:  -5.747126437
EPOCH: 218 MAX:  -5.747126437    AVG:  -5.747126437
EPOCH: 219 MAX:  -5.747126437    AVG:  -5.747126437
EPOCH: 220 MAX:  -5.747126437    AVG:  -5.747126437
EPOCH: 221 MAX:  -5.747126437    AVG:  -5.747126437
EPOCH: 222 MAX:  -5.747126437    AVG:  -5.747126437
EPOCH: 223 MAX:  -5.747126437    AVG:  -5.747126437
EPOCH: 224 MAX:  -5.747126437    AVG:  -5.747126437
EPOCH: 225 MAX:  -5.747126437    AVG:  -5.747126437
EPOCH: 226 MAX:  -5.747126437    AVG:  -5.747126437
EPOCH: 227 MAX:  -5.747126437    AVG:  -5.747126437
EPOCH: 228 MAX:  -5.747126437    AVG:  -5.747126437
EPOCH: 229 MAX:  -5.747126437    AVG:  -5.747126437
EPOCH: 230 MAX:  -5.747126437    AVG:  -5.747126437
EPOCH: 231 MAX:  -5.747126437    AVG:  -5.747126437
EPOCH: 232 MAX:  -5.747126437    AVG:  -5.747126437
EPOCH: 233 MAX:  -5.747126437    AVG:  -5.747126437
EPOCH: 234 MAX:  -5.747126437    AVG:  -5.747126437
EPOCH: 235 MAX:  -5.747126437    AVG:  -5.747126437
EPOCH: 236 MAX:  -5.747126437    AVG:  -5.747126437
EPOCH: 237 MAX:  -5.747126437    AVG:  -5.747126437
EPOCH: 238 MAX:  -5.747126437    AVG:  -5.747126437
EPOCH: 239 MAX:  -5.747126437    AVG:  -5.747126437
EPOCH: 240 MAX:  -5.747126437    AVG:  -5.747126437
EPOCH: 241 MAX:  -5.747126437    AVG:  -5.747126437
EPOCH: 242 MAX:  -5.747126437    AVG:  -5.747126437
EPOCH: 243 MAX:  -5.747126437    AVG:  -5.747126437
EPOCH: 244 MAX:  -5.747126437    AVG:  -5.747126437
EPOCH: 245 MAX:  -5.747126437    AVG:  -5.747126437
EPOCH: 246 MAX:  -5.747126437    AVG:  -5.747126437
EPOCH: 247 MAX:  -5.747126437    AVG:  -5.747126437
EPOCH: 248 MAX:  -5.747126437    AVG:  -5.747126437
EPOCH: 249 MAX:  -5.747126437    AVG:  -5.747126437
EPOCH: 250 MAX:  -5.747126437    AVG:  -5.747126437
EPOCH: 251 MAX:  -5.747126437    AVG:  -5.747126437
EPOCH: 252 MAX:  -5.747126437    AVG:  -5.747126437
EPOCH: 253 MAX:  -5.747126437    AVG:  -5.747126437
EPOCH: 254 MAX:  -5.747126437    AVG:  -5.747126437
EPOCH: 255 MAX:  -5.747126437    AVG:  -5.747126437
EPOCH: 256 MAX:  -5.747126437    AVG:  -5.747126437
EPOCH: 257 MAX:  -5.747126437    AVG:  -5.747126437
EPOCH: 258 MAX:  -5.747126437    AVG:  -5.747126437
EPOCH: 259 MAX:  -5.747126437    AVG:  -5.747126437
EPOCH: 260 MAX:  -5.747126437    AVG:  -5.747126437
HELPER:  ....
---------------------------
CH: 0 432.000000000
CH: 1 432.000000000
CH: 2 432.000000000
CH: 3 432.000000000
CH: 4 431.000000000
CH: 5 432.000000000
CH: 6 432.000000000
CH: 7 431.000000000
CH: 8 432.000000000
CH: 9 432.000000000
CH: 10 432.000000000
CH: 11 431.000000000
CH: 12 432.000000000
CH: 13 432.000000000
CH: 14 425.000000000
CH: 15 432.000000000
CH: 16 431.000000000
CH: 17 432.000000000
CH: 18 432.000000000
CH: 19 424.000000000
CH: 20 424.000000000
CH: 21 414.000000000
CH: 22 425.000000000
CH: 23 431.000000000
CH: 24 432.000000000
CH: 25 432.000000000
CH: 26 432.000000000
CH: 27 431.000000000
CH: 28 431.000000000
CH: 29 424.000000000
CH: 30 432.000000000
CH: 31 431.000000000
CH: 32 408.000000000
CH: 33 425.000000000
CH: 34 378.000000000
CH: 35 425.000000000
CH: 36 431.000000000
CH: 37 431.000000000
CH: 38 432.000000000
CH: 39 431.000000000
CH: 40 424.000000000
CH: 41 432.000000000
CH: 42 408.000000000
CH: 43 425.000000000
CH: 44 432.000000000
CH: 45 425.000000000
CH: 46 351.000000000
CH: 47 431.000000000
CH: 48 432.000000000
CH: 49 414.000000000
CH: 50 414.000000000
CH: 51 425.000000000
CH: 52 425.000000000
CH: 53 414.000000000
CH: 54 431.000000000
CH: 55 425.000000000
CH: 56 431.000000000
CH: 57 431.000000000
CH: 58 408.000000000
CH: 59 425.000000000
CH: 60 416.000000000
CH: 61 431.000000000
CH: 62 432.000000000
CH: 63 432.000000000
CH: 64 432.000000000
CH: 65 432.000000000
CH: 66 328.000000000
CH: 67 414.000000000
CH: 68 408.000000000
CH: 69 432.000000000
CH: 70 432.000000000
CH: 71 431.000000000
CH: 72 378.000000000
CH: 73 378.000000000
CH: 74 248.000000000
CH: 75 432.000000000
CH: 76 408.000000000
CH: 77 424.000000000
CH: 78 431.000000000
CH: 79 408.000000000
CH: 80 431.000000000
CH: 81 431.000000000
CH: 82 432.000000000
CH: 83 416.000000000
CH: 84 351.000000000
CH: 85 414.000000000
CH: 86 431.000000000





END ------------------------
ERROR: 0.000000000
NUM OF COLORS USED = 11
